Data path: /scratch/opt/lxu/CFLG/benchmarks/tree_A
Instance: treeA.500.50
Result path: /scratch/opt/lxu/CFLG/results/tree_A
Solver: Gurobi
Time limit: 7200
Formulation: LEFPAI
Cover: Large
julia --project=. src/main.jl /scratch/opt/lxu/CFLG/benchmarks/tree_A treeA.500.50 /scratch/opt/lxu/CFLG/results/tree_A Gurobi 7200 LEFPAI Large
The latest version of Julia in the `release` channel is 1.11.5+0.x64.linux.gnu. You currently have `1.11.4+0.x64.linux.gnu` installed. Run:

  juliaup update

in your terminal shell to install Julia 1.11.5+0.x64.linux.gnu and update the `release` channel to that version.
/scratch/opt/lxu/CFLG/benchmarks/tree_A Gurobi 7200.0 /scratch/opt/lxu/CFLG/results/tree_A treeA.500.50 LEFPAI Large
/scratch/opt/lxu/CFLG/benchmarks/tree_A/treeA.500.50

 read graph
data loaded

problem_graph/original graph: node: 500/500 edge: 549/549 dlt: 2.9895555760766013 break_avg_len: 1.4947777880383006 break_max_len: 1.9980070812005684Vbar/V, Ebar/E(236, 500, 285, 549)
Set parameter TokenServer to value "solice01.zib.de"
Set parameter Threads to value 1
Set parameter OutputFlag to value 1
Gurobi Optimizer version 12.0.1 build v12.0.1rc0 (linux64 - "Debian GNU/Linux 12 (bookworm)")

CPU model: Intel(R) Xeon(R) Gold 5122 CPU @ 3.60GHz, instruction set [SSE2|AVX|AVX2|AVX512]
Thread count: 8 physical cores, 16 logical processors, using up to 1 threads

Non-default parameters:
Threads  1

Optimize a model with 707 rows, 1134 columns and 1890 nonzeros
Model fingerprint: 0x94116d53
Coefficient statistics:
  Matrix range     [1e+00, 1e+00]
  Objective range  [1e+00, 1e+00]
  Bounds range     [1e+00, 1e+00]
  RHS range        [1e+00, 1e+00]
Presolve removed 707 rows and 1134 columns
Presolve time: 0.00s
Presolve: All rows and columns removed
Iteration    Objective       Primal Inf.    Dual Inf.      Time
       0    9.3000000e+01   0.000000e+00   0.000000e+00      0s

Solved in 0 iterations and 0.00 seconds (0.00 work units)
Optimal objective  9.300000000e+01

User-callback calls 35, time in user-callback 0.00 sec
elapsed CPU time: 1.241278 seconds
Set parameter TokenServer to value "solice01.zib.de"
Set parameter Threads to value 1
Set parameter OutputFlag to value 1
Set parameter MIPGap to value 0.0001
Set parameter MIPGapAbs to value 0.999998
Set parameter TimeLimit to value 7198.758722

 more cuts: false 2.9895555760766013 false
is_attach:trueformulation:LEFPAI0 378 0

 model loaded

Gurobi Optimizer version 12.0.1 build v12.0.1rc0 (linux64 - "Debian GNU/Linux 12 (bookworm)")

CPU model: Intel(R) Xeon(R) Gold 5122 CPU @ 3.60GHz, instruction set [SSE2|AVX|AVX2|AVX512]
Thread count: 8 physical cores, 16 logical processors, using up to 1 threads

Non-default parameters:
TimeLimit  7198.758722
MIPGapAbs  0.999998
Threads  1

Optimize a model with 6953 rows, 6650 columns and 18602 nonzeros
Model fingerprint: 0xf91117ba
Model has 4480 simple general constraints
  4480 INDICATOR
Variable types: 1085 continuous, 5565 integer (5565 binary)
Coefficient statistics:
  Matrix range     [5e-03, 3e+00]
  Objective range  [1e+00, 1e+00]
  Bounds range     [5e-03, 3e+00]
  RHS range        [1e-06, 3e+00]
  GenCon rhs range [2e-06, 3e+00]
  GenCon coe range [1e+00, 1e+00]
Presolve removed 1201 rows and 3246 columns
Presolve time: 0.23s
Presolved: 5752 rows, 3404 columns, 27808 nonzeros
Presolved model has 1 SOS constraint(s)
Variable types: 521 continuous, 2883 integer (2883 binary)
Found heuristic solution: objective 362.0000000
Found heuristic solution: objective 361.0000000
Found heuristic solution: objective 266.0000000

Root relaxation: objective 1.113549e+02, 2953 iterations, 0.04 seconds (0.04 work units)

    Nodes    |    Current Node    |     Objective Bounds      |     Work
 Expl Unexpl |  Obj  Depth IntInf | Incumbent    BestBd   Gap | It/Node Time

     0     0  111.35488    0  610  266.00000  111.35488  58.1%     -    0s
H    0     0                     263.0000000  111.35488  57.7%     -    0s
H    0     0                     171.0000000  111.35488  34.9%     -    0s
     0     0  117.77951    0  826  171.00000  117.77951  31.1%     -    0s
     0     0  118.12453    0  836  171.00000  118.12453  30.9%     -    0s
     0     0  118.16808    0  859  171.00000  118.16808  30.9%     -    0s
     0     0  118.16897    0  871  171.00000  118.16897  30.9%     -    0s
     0     0  122.95064    0  798  171.00000  122.95064  28.1%     -    0s
     0     0  123.07997    0  820  171.00000  123.07997  28.0%     -    0s
     0     0  123.08691    0  833  171.00000  123.08691  28.0%     -    0s
     0     0  123.08805    0  841  171.00000  123.08805  28.0%     -    0s
     0     0  126.47121    0  724  171.00000  126.47121  26.0%     -    1s
H    0     0                     162.0000000  126.51585  21.9%     -    1s
H    0     0                     161.0000000  126.51585  21.4%     -    1s
     0     0  126.66552    0  755  161.00000  126.66552  21.3%     -    1s
     0     0  126.70854    0  771  161.00000  126.70854  21.3%     -    1s
     0     0  126.71499    0  771  161.00000  126.71499  21.3%     -    1s
     0     0  126.71756    0  774  161.00000  126.71756  21.3%     -    1s
     0     0  128.42060    0  712  161.00000  128.42060  20.2%     -    1s
     0     0  128.47636    0  770  161.00000  128.47636  20.2%     -    1s
     0     0  128.51350    0  774  161.00000  128.51350  20.2%     -    1s
     0     0  128.51350    0  789  161.00000  128.51350  20.2%     -    1s
     0     0  128.57410    0  794  161.00000  128.57410  20.1%     -    1s
H    0     0                     157.0000000  128.57410  18.1%     -    1s
     0     0  128.58111    0  823  157.00000  128.58111  18.1%     -    1s
     0     0  128.58279    0  829  157.00000  128.58279  18.1%     -    1s
     0     0  128.73533    0  771  157.00000  128.73533  18.0%     -    1s
H    0     0                     149.0000000  128.73533  13.6%     -    1s
H    0     0                     148.0000000  128.73533  13.0%     -    1s
H    0     0                     147.0000000  128.73533  12.4%     -    1s
     0     0  128.74177    0  790  147.00000  128.74177  12.4%     -    1s
     0     0  128.74287    0  769  147.00000  128.74287  12.4%     -    1s
     0     0  128.95247    0  726  147.00000  128.95247  12.3%     -    1s
     0     0  128.96010    0  741  147.00000  128.96010  12.3%     -    1s
     0     0  128.96824    0  734  147.00000  128.96824  12.3%     -    1s
     0     0  128.96844    0  730  147.00000  128.96844  12.3%     -    1s
     0     0  129.00399    0  722  147.00000  129.00399  12.2%     -    1s
     0     0  129.00594    0  735  147.00000  129.00594  12.2%     -    1s
     0     0  129.21747    0  696  147.00000  129.21747  12.1%     -    2s
     0     0  129.22858    0  743  147.00000  129.22858  12.1%     -    2s
     0     0  129.22858    0  749  147.00000  129.22858  12.1%     -    2s
     0     0  129.24569    0  726  147.00000  129.24569  12.1%     -    2s
     0     0  129.24594    0  748  147.00000  129.24594  12.1%     -    2s
     0     0  129.24941    0  753  147.00000  129.24941  12.1%     -    2s
     0     0  129.25068    0  487  147.00000  129.25068  12.1%     -    2s
H    0     0                     145.0000000  129.27815  10.8%     -    2s
     0     2  129.27815    0  471  145.00000  129.27815  10.8%     -    2s
H   26    24                     144.0000000  129.27815  10.2%   110    2s
H  162   145                     143.0000000  129.72548  9.28%  44.9    3s
H  189   172                     142.0000000  129.72548  8.64%  45.0    3s
H  379   280                     140.0000000  129.95489  7.18%  39.5    4s
   557   425  137.42117   56  487  140.00000  130.02992  7.12%  37.5    5s
   600   454  134.65115   18  595  140.00000  134.65115  3.82%  34.8   10s
H  618   441                     139.0000000  135.31944  2.65%  33.8   13s
   638   455  135.60233    9  160  139.00000  135.60233  2.44%   161   15s
   803   512  137.03481   33  327  139.00000  135.88917  2.24%   197   20s
  1222   596  137.10888   34  296  139.00000  136.19697  2.02%   157   25s
  1694   704  137.25839   40  376  139.00000  136.64565  1.69%   133   30s
  2309   919  138.00000   38  178  139.00000  136.67606  1.67%   116   35s
  3251  1397  138.00000   36  316  139.00000  136.74048  1.63%   102   40s
  4120  1768  137.47921   40  267  139.00000  136.81960  1.57%  96.4   45s
  4846  2055  137.11700   35  318  139.00000  136.91667  1.50%  94.5   50s
  5498  2286  138.00000   34  249  139.00000  137.00646  1.43%  91.3   55s
  6470  2764  137.04762   32  315  139.00000  137.02535  1.42%  87.4   60s
  7192  3115  137.71667   35  403  139.00000  137.03666  1.41%  85.2   65s
  8159  3545  138.00000   58  106  139.00000  137.06202  1.39%  82.6   70s
  9121  3839  137.20833   36  186  139.00000  137.09719  1.37%  81.7   75s
 10125  4159  137.67910   45  343  139.00000  137.11905  1.35%  80.6   80s
 10203  4188  137.50000   43  487  139.00000  137.12450  1.35%  80.5   92s
 10213  4195  137.50000   43  421  139.00000  137.12450  1.35%  80.4   95s
 10230  4206  137.50000   40  269  139.00000  137.12450  1.35%  80.3  100s
 10245  4216  138.00000   50  488  139.00000  137.12450  1.35%  80.2  105s
 10260  4226  138.00000   53  445  139.00000  137.12450  1.35%  80.0  110s
 10496  4236  138.00000   37  245  139.00000  137.22222  1.28%  90.3  115s
 10745  4212  138.00000   49  237  139.00000  137.50000  1.08%  89.9  120s
 11046  4153     cutoff   67       139.00000  138.00000  0.72%  89.1  125s
 11805  3907  138.00000   53  101  139.00000  138.00000  0.72%  87.7  130s
 12692  3636  138.00000   56  157  139.00000  138.00000  0.72%  85.7  135s
 13646  3334  138.00000   61   85  139.00000  138.00000  0.72%  84.9  140s
 14596  3025  138.00000   64  101  139.00000  138.00000  0.72%  84.2  145s
 15929  2606  138.00000   76   40  139.00000  138.00000  0.72%  82.0  150s
 16917  2291     cutoff   61       139.00000  138.00000  0.72%  80.9  155s
 18024  1899     cutoff   51       139.00000  138.00000  0.72%  80.5  160s
 19166  1558  138.00000   72   82  139.00000  138.00000  0.72%  79.5  165s
 20308  1154  138.00000   61  169  139.00000  138.00000  0.72%  79.2  170s
 21055   904  138.00000   57  150  139.00000  138.00000  0.72%  79.3  175s
 21984   595     cutoff   69       139.00000  138.00000  0.72%  79.7  180s
 23199   273  138.00000   65  131  139.00000  138.00000  0.72%  79.3  185s
 24234   280     cutoff   62       139.00000  138.00000  0.72%  79.4  190s
 25190   265  138.00000   68  114  139.00000  138.00000  0.72%  79.8  195s
 26141   269  138.00000   55  110  139.00000  138.00000  0.72%  79.8  200s
 27007   247  138.00000   61   90  139.00000  138.00000  0.72%  80.3  205s
 28064   246     cutoff   58       139.00000  138.00000  0.72%  79.9  210s
 29189   245  138.00000   65  170  139.00000  138.00000  0.72%  79.3  215s
 30154   236  138.00000   67  142  139.00000  138.00000  0.72%  79.4  220s
 31175   238  138.00000   61  119  139.00000  138.00000  0.72%  79.4  225s
 32083   267  138.00000   64  158  139.00000  138.00000  0.72%  79.7  230s
 32979   277     cutoff   74       139.00000  138.00000  0.72%  80.0  235s
 34042   294  138.00000   71  134  139.00000  138.00000  0.72%  80.0  240s
 35076   296     cutoff   87       139.00000  138.00000  0.72%  79.9  245s
 35983   287  138.00000   73  133  139.00000  138.00000  0.72%  80.1  250s
 36924   289  138.00000   71  141  139.00000  138.00000  0.72%  80.3  255s
 37814   266  138.00000   66  116  139.00000  138.00000  0.72%  80.5  260s
 38885   274  138.00000   73  133  139.00000  138.00000  0.72%  80.3  265s
 40073   270  138.00000   75  119  139.00000  138.00000  0.72%  79.9  270s
 41182   278  138.00000   78  147  139.00000  138.00000  0.72%  79.8  275s
 42120   253     cutoff   62       139.00000  138.00000  0.72%  80.0  280s
 43070   251     cutoff   70       139.00000  138.00000  0.72%  80.3  285s
 44193   247     cutoff   74       139.00000  138.00000  0.72%  80.3  290s
 45284   262     cutoff   77       139.00000  138.00000  0.72%  80.1  295s
 46393   242     cutoff   73       139.00000  138.00000  0.72%  80.1  300s
 47448   249     cutoff   76       139.00000  138.00000  0.72%  80.2  305s
 48655   240  138.00000   64  181  139.00000  138.00000  0.72%  79.8  310s
 49747   239  138.00000   57  202  139.00000  138.00000  0.72%  79.9  315s
 50839   247     cutoff   71       139.00000  138.00000  0.72%  80.0  320s
 51902   223     cutoff   58       139.00000  138.00000  0.72%  80.0  325s
 52976   219  138.00000   45  321  139.00000  138.00000  0.72%  79.9  330s
 53994   239     cutoff   62       139.00000  138.00000  0.72%  79.9  335s
 55002   245     cutoff   59       139.00000  138.00000  0.72%  80.1  340s
 55895   233  138.00000   53  225  139.00000  138.00000  0.72%  80.2  345s
 56714   257  138.00000   52  258  139.00000  138.00000  0.72%  80.5  350s
 57629   262  138.00000   55  165  139.00000  138.00000  0.72%  80.5  355s
 58504   277     cutoff   63       139.00000  138.00000  0.72%  80.6  360s
 59510   267  138.00000   60  162  139.00000  138.00000  0.72%  80.8  365s
 60304   294  138.00000   65  112  139.00000  138.00000  0.72%  80.9  370s
 61332   289     cutoff   67       139.00000  138.00000  0.72%  80.9  375s
 62335   297  138.00000   59  198  139.00000  138.00000  0.72%  81.1  380s
 63277   272  138.00000   68  186  139.00000  138.00000  0.72%  81.3  385s
 64298   291  138.00000   84   60  139.00000  138.00000  0.72%  81.3  390s
 65103   297     cutoff   68       139.00000  138.00000  0.72%  81.6  395s
 66132   286  138.00000   65  163  139.00000  138.00000  0.72%  81.5  400s
 67150   280     cutoff   64       139.00000  138.00000  0.72%  81.5  405s
 68069   269  138.00000   48  205  139.00000  138.00000  0.72%  81.7  410s
 68989   289     cutoff   62       139.00000  138.00000  0.72%  82.1  415s
 69842   283     cutoff   51       139.00000  138.00000  0.72%  82.2  420s
 70688   334  138.00000   74  101  139.00000  138.00000  0.72%  82.5  425s
 71640   296  138.00000   64  226  139.00000  138.00000  0.72%  82.6  430s
 72558   338  138.00000   82   99  139.00000  138.00000  0.72%  82.9  435s
 73618   293  138.00000   48  255  139.00000  138.00000  0.72%  83.0  440s
 74703   309  138.00000   78   76  139.00000  138.00000  0.72%  83.0  445s
 75587   310     cutoff   60       139.00000  138.00000  0.72%  83.2  450s
 76395   274  138.00000   66  261  139.00000  138.00000  0.72%  83.6  455s
 77419   291  138.00000   78  143  139.00000  138.00000  0.72%  83.7  460s
 78254   315     cutoff   78       139.00000  138.00000  0.72%  83.7  465s
 79295   282     cutoff   56       139.00000  138.00000  0.72%  83.8  470s
 80118   279  138.00000   66  198  139.00000  138.00000  0.72%  84.0  475s
 80935   279  138.00000   68  185  139.00000  138.00000  0.72%  84.3  480s
 81826   287  138.00000   60  156  139.00000  138.00000  0.72%  84.5  485s
 82683   248     cutoff   60       139.00000  138.00000  0.72%  84.8  490s
 83598   276     cutoff   96       139.00000  138.00000  0.72%  84.9  495s
 84624   285     cutoff   78       139.00000  138.00000  0.72%  85.0  500s
 85516   293     cutoff   78       139.00000  138.00000  0.72%  85.2  505s
 86754   291     cutoff   86       139.00000  138.00000  0.72%  85.0  510s
 87632   298     cutoff   86       139.00000  138.00000  0.72%  85.1  515s
 88465   265  138.00000   66  191  139.00000  138.00000  0.72%  85.3  520s
 89335   278     cutoff   62       139.00000  138.00000  0.72%  85.4  525s
 90088   271  138.00000   57  203  139.00000  138.00000  0.72%  85.6  530s
 91111   282  138.00000   70  148  139.00000  138.00000  0.72%  85.7  535s
 92158   271  138.00000   64  235  139.00000  138.00000  0.72%  85.6  540s
 93063   291  138.00000   71  129  139.00000  138.00000  0.72%  85.7  545s
 93983   269  138.00000   68  201  139.00000  138.00000  0.72%  85.8  550s
 94896   251  138.00000   59  216  139.00000  138.00000  0.72%  85.8  555s
 95850   266     cutoff   70       139.00000  138.00000  0.72%  85.9  560s
 96819   240  138.00000   71  214  139.00000  138.00000  0.72%  86.0  565s
 97667   276     cutoff   69       139.00000  138.00000  0.72%  86.2  570s
 98692   290     cutoff   67       139.00000  138.00000  0.72%  86.3  575s
 99600   272     cutoff   71       139.00000  138.00000  0.72%  86.4  580s
 100763   284     cutoff   74       139.00000  138.00000  0.72%  86.3  585s
 101636   270     cutoff   65       139.00000  138.00000  0.72%  86.4  590s
 102601   303     cutoff   80       139.00000  138.00000  0.72%  86.4  595s
 103691   293  138.00000   77   95  139.00000  138.00000  0.72%  86.3  600s
 104840   346  138.00000   76   29  139.00000  138.00000  0.72%  86.2  605s
 105908   292  138.00000   63  261  139.00000  138.00000  0.72%  86.3  610s
 106799   299  138.00000   57  215  139.00000  138.00000  0.72%  86.3  615s
 107818   301 infeasible   79       139.00000  138.00000  0.72%  86.3  620s
 108741   275  138.00000   78  235  139.00000  138.00000  0.72%  86.3  625s
 109642   266  138.00000   75  178  139.00000  138.00000  0.72%  86.3  630s
 110706   271     cutoff   63       139.00000  138.00000  0.72%  86.3  635s
 111632   249     cutoff   58       139.00000  138.00000  0.72%  86.4  640s
 112731   256     cutoff   59       139.00000  138.00000  0.72%  86.4  645s
 113524   258     cutoff   57       139.00000  138.00000  0.72%  86.5  650s
 114838   279  138.00000   74  136  139.00000  138.00000  0.72%  86.2  655s
 116157   295  138.00000   76   78  139.00000  138.00000  0.72%  85.9  660s
 117165   292     cutoff   78       139.00000  138.00000  0.72%  86.0  665s
 118280   273  138.00000   63  191  139.00000  138.00000  0.72%  85.9  670s
 119310   261     cutoff   90       139.00000  138.00000  0.72%  85.8  675s
 119993   261  138.00000   52  263  139.00000  138.00000  0.72%  86.0  680s
 120922   256  138.00000   59  175  139.00000  138.00000  0.72%  86.1  685s
 122036   270  138.00000   75  143  139.00000  138.00000  0.72%  86.0  690s
 123159   267     cutoff   67       139.00000  138.00000  0.72%  85.9  695s
 124150   261  138.00000   65  126  139.00000  138.00000  0.72%  86.0  700s
 125173   276  138.00000   62  149  139.00000  138.00000  0.72%  86.0  705s
 126273   265     cutoff   52       139.00000  138.00000  0.72%  86.0  710s
 127252   302     cutoff   65       139.00000  138.00000  0.72%  86.0  715s
 128173   308  138.00000   60  207  139.00000  138.00000  0.72%  86.0  720s
 129290   310     cutoff   68       139.00000  138.00000  0.72%  86.0  725s
 130373   324     cutoff   70       139.00000  138.00000  0.72%  85.9  730s
 131448   312  138.00000   74  129  139.00000  138.00000  0.72%  85.9  735s
 132524   308  138.00000   69  161  139.00000  138.00000  0.72%  85.7  740s
 133610   296     cutoff   62       139.00000  138.00000  0.72%  85.7  745s
 134492   269  138.00000   69  189  139.00000  138.00000  0.72%  85.8  750s
 135419   317     cutoff   69       139.00000  138.00000  0.72%  85.9  755s
 136258   310     cutoff   72       139.00000  138.00000  0.72%  86.0  760s
 137162   337     cutoff   78       139.00000  138.00000  0.72%  86.1  765s
 138135   312     cutoff   67       139.00000  138.00000  0.72%  86.1  770s
 139001   339  138.00000   89  164  139.00000  138.00000  0.72%  86.2  775s
 139857   307     cutoff   70       139.00000  138.00000  0.72%  86.3  780s
 140796   317     cutoff   66       139.00000  138.00000  0.72%  86.4  785s
 141693   301  138.00000   54  203  139.00000  138.00000  0.72%  86.4  790s
 142547   314     cutoff   76       139.00000  138.00000  0.72%  86.5  795s
 143710   309     cutoff   68       139.00000  138.00000  0.72%  86.4  800s
 144656   286 infeasible   62       139.00000  138.00000  0.72%  86.5  805s
 145578   293  138.00000   64  165  139.00000  138.00000  0.72%  86.5  810s
 146675   293     cutoff   71       139.00000  138.00000  0.72%  86.4  815s
 147802   293  138.00000   78  130  139.00000  138.00000  0.72%  86.4  820s
 148953   292     cutoff   74       139.00000  138.00000  0.72%  86.3  825s
 149937   304     cutoff   87       139.00000  138.00000  0.72%  86.3  830s
 150804   298  138.00000   72  139  139.00000  138.00000  0.72%  86.3  835s
 151920   288     cutoff   64       139.00000  138.00000  0.72%  86.3  840s
 152563   281  138.00000   54  245  139.00000  138.00000  0.72%  86.4  845s
 153486   328  138.00000   62  267  139.00000  138.00000  0.72%  86.4  850s
 154462   359  138.00000   78  338  139.00000  138.00000  0.72%  86.4  855s
 155515   339     cutoff   61       139.00000  138.00000  0.72%  86.4  860s
 156381   294     cutoff   76       139.00000  138.00000  0.72%  86.5  865s
 157313   284     cutoff   65       139.00000  138.00000  0.72%  86.6  870s
 158378   286  138.00000   63  217  139.00000  138.00000  0.72%  86.6  875s
 159338   287  138.00000   63  231  139.00000  138.00000  0.72%  86.6  880s
 160268   263     cutoff   64       139.00000  138.00000  0.72%  86.6  885s
 161166   299  138.00000   69  111  139.00000  138.00000  0.72%  86.7  890s
 162247   294  138.00000   88   95  139.00000  138.00000  0.72%  86.6  895s
 163388   295  138.00000   70   82  139.00000  138.00000  0.72%  86.5  900s
 164399   262     cutoff   56       139.00000  138.00000  0.72%  86.5  905s
 165092   256  138.00000   59  246  139.00000  138.00000  0.72%  86.7  910s
 165800   251     cutoff   74       139.00000  138.00000  0.72%  86.8  915s
 166786   230  138.00000   46  285  139.00000  138.00000  0.72%  86.8  920s
 167576   252  138.00000   62  255  139.00000  138.00000  0.72%  86.9  925s
 168632   252     cutoff   68       139.00000  138.00000  0.72%  86.9  930s
 169591   245  138.00000   69  158  139.00000  138.00000  0.72%  87.0  935s
 170311   240     cutoff   59       139.00000  138.00000  0.72%  87.3  940s
 171206   249     cutoff   64       139.00000  138.00000  0.72%  87.5  945s
 172085   270     cutoff   72       139.00000  138.00000  0.72%  87.7  950s
 172970   285     cutoff   75       139.00000  138.00000  0.72%  87.9  955s
 173605   221  138.00000   69  214  139.00000  138.00000  0.72%  88.1  960s
 174398   210  138.00000   41  346  139.00000  138.00000  0.72%  88.3  965s
 175258   214     cutoff   54       139.00000  138.00000  0.72%  88.3  970s
 176059   219  138.00000   49  227  139.00000  138.00000  0.72%  88.3  975s
 176930   199     cutoff   60       139.00000  138.00000  0.72%  88.4  980s
 177833   214  138.00000   74  154  139.00000  138.00000  0.72%  88.5  985s
 178445   198 infeasible   59       139.00000  138.00000  0.72%  88.5  990s
 179169   164     cutoff   52       139.00000  138.00000  0.72%  88.7  995s
 179937   162  138.00000   63  230  139.00000  138.00000  0.72%  88.8 1000s
 180854   163  138.00000   60  313  139.00000  138.00000  0.72%  88.8 1005s
 181808   167  138.00000   66  137  139.00000  138.00000  0.72%  88.8 1010s
 182770   219  138.00000   71  165  139.00000  138.00000  0.72%  88.9 1015s
 183676   198  138.00000   69  155  139.00000  138.00000  0.72%  89.0 1020s
 184746   206  138.00000   84   52  139.00000  138.00000  0.72%  88.9 1025s
 185664   168  138.00000   64  180  139.00000  138.00000  0.72%  89.0 1030s
 186583   155     cutoff   59       139.00000  138.00000  0.72%  89.1 1035s
 187605   205     cutoff   75       139.00000  138.00000  0.72%  89.1 1040s
 188479   184  138.00000   67  208  139.00000  138.00000  0.72%  89.2 1045s
 189374   175  138.00000   70  170  139.00000  138.00000  0.72%  89.3 1050s
 190193   178     cutoff   78       139.00000  138.00000  0.72%  89.4 1055s
 191064   183  138.00000   72  104  139.00000  138.00000  0.72%  89.5 1060s
 191882   173     cutoff   58       139.00000  138.00000  0.72%  89.5 1065s
 192748   200  138.00000   65  154  139.00000  138.00000  0.72%  89.6 1070s
 193661   173  138.00000   65  119  139.00000  138.00000  0.72%  89.7 1075s
 194533   168  138.00000   60  172  139.00000  138.00000  0.72%  89.8 1080s
 195397   186     cutoff   64       139.00000  138.00000  0.72%  89.8 1085s
 196321   180  138.00000   56  262  139.00000  138.00000  0.72%  89.9 1090s
 197115   188  138.00000   58  168  139.00000  138.00000  0.72%  90.0 1095s
 197794   166  138.00000   70  172  139.00000  138.00000  0.72%  90.2 1100s
 198585   196  138.00000   61  162  139.00000  138.00000  0.72%  90.3 1105s
 199317   195  138.00000   61  116  139.00000  138.00000  0.72%  90.5 1110s
 200281   218     cutoff   67       139.00000  138.00000  0.72%  90.5 1115s
 201099   199  138.00000   71  106  139.00000  138.00000  0.72%  90.6 1120s
 201978   197  138.00000   57  128  139.00000  138.00000  0.72%  90.6 1125s
 203027   204  138.00000   65  201  139.00000  138.00000  0.72%  90.6 1130s
 204156   211  138.00000   71  105  139.00000  138.00000  0.72%  90.6 1135s
 205010   216  138.00000   58  190  139.00000  138.00000  0.72%  90.7 1140s
 206002   219     cutoff   64       139.00000  138.00000  0.72%  90.7 1145s
 206701   235     cutoff   76       139.00000  138.00000  0.72%  90.6 1150s
 207717   193  138.00000   54  202  139.00000  138.00000  0.72%  90.7 1155s
 208360   162     cutoff   60       139.00000  138.00000  0.72%  90.8 1160s
 209081   156     cutoff   71       139.00000  138.00000  0.72%  90.9 1165s
 209927   156     cutoff   69       139.00000  138.00000  0.72%  91.0 1170s
 210765   141  138.00000   44  333  139.00000  138.00000  0.72%  91.2 1175s
 211622   156     cutoff   48       139.00000  138.00000  0.72%  91.3 1180s
 212439   165  138.00000   53  253  139.00000  138.00000  0.72%  91.5 1185s
 213068   152  138.00000   44  277  139.00000  138.00000  0.72%  91.5 1190s
 213802   153  138.00000   53  274  139.00000  138.00000  0.72%  91.6 1195s
 214508   154  138.00000   42  318  139.00000  138.00000  0.72%  91.7 1200s
 215328   161  138.00000   53  244  139.00000  138.00000  0.72%  91.8 1205s
 216239   162     cutoff   68       139.00000  138.00000  0.72%  91.8 1210s
 217242   144  138.00000   38  311  139.00000  138.00000  0.72%  91.9 1215s
 218056   191     cutoff   64       139.00000  138.00000  0.72%  92.0 1220s
 218665   171  138.00000   58  221  139.00000  138.00000  0.72%  92.1 1225s
 219432   175  138.00000   55  158  139.00000  138.00000  0.72%  92.3 1230s
 220214   172     cutoff   59       139.00000  138.00000  0.72%  92.4 1235s
 221156   203  138.00000   56  238  139.00000  138.00000  0.72%  92.4 1240s
 222182   214  138.00000   68  124  139.00000  138.00000  0.72%  92.4 1245s
 223333   192  138.00000   53  246  139.00000  138.00000  0.72%  92.4 1250s
 224248   159  138.00000   50  265  139.00000  138.00000  0.72%  92.5 1255s
 225091   163  138.00000   59  231  139.00000  138.00000  0.72%  92.6 1260s
 225919   140  138.00000   48  322  139.00000  138.00000  0.72%  92.7 1265s
 226755   172  138.00000   72   74  139.00000  138.00000  0.72%  92.7 1270s
 227577   173     cutoff   76       139.00000  138.00000  0.72%  92.8 1275s
 228380   177  138.00000   72  146  139.00000  138.00000  0.72%  92.9 1280s
 229352   211  138.00000   61  195  139.00000  138.00000  0.72%  92.9 1285s
 230295   260     cutoff   67       139.00000  138.00000  0.72%  92.9 1290s
 231270   264     cutoff   84       139.00000  138.00000  0.72%  92.9 1295s
 232332   259  138.00000   55  198  139.00000  138.00000  0.72%  92.9 1300s
 233218   249  138.00000   75  219  139.00000  138.00000  0.72%  92.9 1305s
 234279   299  138.00000   56  197  139.00000  138.00000  0.72%  92.8 1310s
 235302   264     cutoff   63       139.00000  138.00000  0.72%  92.8 1315s
 236317   350  138.00000   62  143  139.00000  138.00000  0.72%  92.8 1320s
 237361   381     cutoff   75       139.00000  138.00000  0.72%  92.8 1325s
 238376   303     cutoff   49       139.00000  138.00000  0.72%  92.8 1330s
 239307   314  138.00000   77  258  139.00000  138.00000  0.72%  92.9 1335s
 240196   278     cutoff   67       139.00000  138.00000  0.72%  92.9 1340s
 241097   218     cutoff   66       139.00000  138.00000  0.72%  93.0 1345s
 241984   196     cutoff   71       139.00000  138.00000  0.72%  93.0 1350s
 242770   134  138.00000   47  205  139.00000  138.00000  0.72%  93.1 1355s
 243311   129     cutoff   53       139.00000  138.00000  0.72%  93.1 1360s
 244071   117  138.00000   48  342  139.00000  138.00000  0.72%  93.2 1365s
 244951   108     cutoff   54       139.00000  138.00000  0.72%  93.3 1370s
 245695   100     cutoff   64       139.00000  138.00000  0.72%  93.3 1375s
 246746    78  138.00000   56  159  139.00000  138.00000  0.72%  93.3 1380s

Cutting planes:
  Learned: 5
  Gomory: 38
  Cover: 130
  Implied bound: 62
  Clique: 6
  MIR: 201
  Mixing: 2
  StrongCG: 4
  Flow cover: 606
  GUB cover: 103
  Inf proof: 11
  Zero half: 235
  RLT: 55
  Relax-and-lift: 41
  BQP: 14

Explored 247085 nodes (23076264 simplex iterations) in 1381.86 seconds (1114.36 work units)
Thread count was 1 (of 16 available processors)

Solution count 10: 139 140 140 ... 147

Optimal solution found (tolerance 1.00e-04)
Warning: max constraint violation (5.4364e-06) exceeds tolerance
Warning: max general constraint violation (5.4364e-06) exceeds tolerance
Best objective 1.390000000000e+02, best bound 1.380000207654e+02, gap 0.7194%

User-callback calls 899450, time in user-callback 0.46 sec

 sepatime0 0 0
139.0Stat(MathOptInterface.OPTIMAL, 139.0, 138.00002076539081, 0.007194095213015721, 0.0, 1.241278, 1381.8587021827698, 247085, Main.CFLG.LEFPAI, "", #undef)
